75, 5953
11283, 5
7672, 65
6649, 52
7350, 91
5133, 13
7461, 45
8436, 21
9604, 45
10560, 9
6975, 10
6380, 78
11366, 90
6684, 30
11447, 24
5155, 98
9771, 92
10778, 25
5540, 17
8754, 89
11032, 41
12130, 0
4339, 30
10102, 20
7265, 91
4698, 71
4603, 76
7774, 35
11621, 24
9867, 73
2863, 9
8658, 26
6365, 80
4124, 43
11679, 73
4912, 100
7606, 96
11936, 56
12495, 88
3529, 38
12372, 100
9553, 54
10663, 66
8196, 6
6543, 26
7195, 69
7367, 65
8222, 92
9905, 99
9452, 17
4041, 56
10612, 4
8296, 9
9102, 90
7888, 92
6427, 42
7116, 39
7474, 33
11704, 41
11034, 23
7959, 85
10457, 83
9249, 70
4791, 98
4998, 87
9349, 44
9294, 31
4668, 31
11755, 85
5218, 69
3315, 49
9730, 40
11835, 40
3307, 31
11455, 43
7005, 99